c File: data_files/evolved_graphs/g0141.col
c
c Auto generated graph
c
p edge 100 2429
e 1 2
e 1 3
e 1 7
e 1 13
e 1 17
e 1 24
e 1 25
e 1 27
e 1 28
e 1 29
e 1 32
e 1 33
e 1 36
e 1 37
e 1 40
e 1 42
e 1 43
e 1 44
e 1 45
e 1 47
e 1 48
e 1 49
e 1 50
e 1 51
e 1 52
e 1 53
e 1 54
e 1 56
e 1 57
e 1 58
e 1 59
e 1 61
e 1 62
e 1 63
e 1 64
e 1 66
e 1 67
e 1 71
e 1 74
e 1 82
e 1 85
e 1 93
e 1 95
e 2 3
e 2 4
e 2 12
e 2 22
e 2 23
e 2 24
e 2 25
e 2 26
e 2 27
e 2 28
e 2 29
e 2 30
e 2 31
e 2 32
e 2 33
e 2 34
e 2 37
e 2 39
e 2 40
e 2 41
e 2 42
e 2 43
e 2 44
e 2 45
e 2 46
e 2 48
e 2 51
e 2 52
e 2 53
e 2 56
e 2 57
e 2 58
e 2 59
e 2 60
e 2 61
e 2 62
e 2 63
e 2 64
e 2 66
e 2 67
e 2 68
e 2 80
e 2 87
e 2 90
e 2 99
e 3 5
e 3 17
e 3 23
e 3 25
e 3 26
e 3 27
e 3 31
e 3 33
e 3 34
e 3 36
e 3 38
e 3 43
e 3 45
e 3 46
e 3 47
e 3 48
e 3 49
e 3 50
e 3 51
e 3 52
e 3 53
e 3 54
e 3 55
e 3 56
e 3 57
e 3 58
e 3 59
e 3 60
e 3 61
e 3 62
e 3 64
e 3 66
e 3 67
e 3 68
e 3 73
e 3 74
e 3 80
e 3 94
e 3 95
e 4 5
e 4 6
e 4 7
e 4 12
e 4 13
e 4 18
e 4 24
e 4 25
e 4 27
e 4 28
e 4 30
e 4 31
e 4 32
e 4 34
e 4 35
e 4 36
e 4 37
e 4 38
e 4 39
e 4 41
e 4 44
e 4 46
e 4 47
e 4 48
e 4 50
e 4 52
e 4 53
e 4 54
e 4 55
e 4 56
e 4 57
e 4 58
e 4 59
e 4 60
e 4 61
e 4 62
e 4 63
e 4 64
e 4 65
e 4 66
e 4 67
e 4 77
e 4 83
e 4 86
e 4 94
e 4 99
e 5 6
e 5 7
e 5 23
e 5 25
e 5 27
e 5 28
e 5 29
e 5 31
e 5 34
e 5 35
e 5 36
e 5 37
e 5 38
e 5 39
e 5 40
e 5 41
e 5 42
e 5 43
e 5 45
e 5 46
e 5 47
e 5 48
e 5 49
e 5 50
e 5 52
e 5 53
e 5 54
e 5 55
e 5 56
e 5 57
e 5 58
e 5 59
e 5 60
e 5 61
e 5 62
e 5 63
e 5 64
e 5 65
e 5 67
e 5 69
e 5 72
e 5 82
e 5 84
e 5 85
e 5 86
e 5 87
e 5 88
e 5 89
e 5 92
e 5 97
e 5 98
e 5 100
e 6 7
e 6 21
e 6 23
e 6 24
e 6 25
e 6 26
e 6 27
e 6 28
e 6 29
e 6 31
e 6 32
e 6 33
e 6 35
e 6 36
e 6 37
e 6 38
e 6 39
e 6 40
e 6 43
e 6 44
e 6 45
e 6 46
e 6 47
e 6 48
e 6 49
e 6 50
e 6 51
e 6 53
e 6 56
e 6 57
e 6 58
e 6 59
e 6 60
e 6 61
e 6 62
e 6 63
e 6 64
e 6 66
e 6 67
e 6 68
e 6 69
e 6 72
e 6 81
e 6 85
e 6 96
e 6 97
e 6 98
e 6 99
e 6 100
e 7 9
e 7 10
e 7 18
e 7 19
e 7 23
e 7 24
e 7 25
e 7 26
e 7 27
e 7 28
e 7 30
e 7 31
e 7 32
e 7 33
e 7 34
e 7 37
e 7 38
e 7 39
e 7 40
e 7 42
e 7 45
e 7 46
e 7 47
e 7 48
e 7 49
e 7 50
e 7 52
e 7 53
e 7 54
e 7 55
e 7 56
e 7 57
e 7 58
e 7 59
e 7 60
e 7 61
e 7 63
e 7 64
e 7 65
e 7 66
e 7 67
e 7 84
e 7 87
e 7 96
e 7 98
e 7 99
e 7 100
e 8 9
e 8 10
e 8 11
e 8 12
e 8 13
e 8 14
e 8 15
e 8 16
e 8 17
e 8 18
e 8 19
e 8 20
e 8 21
e 8 22
e 8 23
e 8 24
e 8 25
e 8 26
e 8 29
e 8 30
e 8 31
e 8 34
e 8 35
e 8 36
e 8 37
e 8 38
e 8 39
e 8 40
e 8 41
e 8 42
e 8 43
e 8 44
e 8 45
e 8 46
e 8 47
e 8 48
e 8 49
e 8 50
e 8 51
e 8 52
e 8 53
e 8 54
e 8 57
e 8 58
e 8 59
e 8 60
e 8 61
e 8 63
e 8 64
e 8 66
e 8 67
e 8 73
e 8 75
e 8 84
e 8 86
e 8 96
e 8 97
e 8 98
e 8 99
e 9 10
e 9 11
e 9 12
e 9 13
e 9 14
e 9 15
e 9 16
e 9 17
e 9 18
e 9 19
e 9 20
e 9 21
e 9 22
e 9 23
e 9 24
e 9 25
e 9 26
e 9 27
e 9 28
e 9 29
e 9 30
e 9 31
e 9 33
e 9 34
e 9 35
e 9 36
e 9 37
e 9 38
e 9 40
e 9 41
e 9 42
e 9 43
e 9 44
e 9 47
e 9 48
e 9 49
e 9 50
e 9 51
e 9 53
e 9 56
e 9 57
e 9 58
e 9 61
e 9 62
e 9 63
e 9 64
e 9 65
e 9 66
e 9 67
e 9 78
e 9 83
e 9 86
e 9 93
e 9 97
e 9 98
e 9 99
e 9 100
e 10 11
e 10 12
e 10 13
e 10 14
e 10 15
e 10 16
e 10 17
e 10 18
e 10 19
e 10 20
e 10 21
e 10 22
e 10 23
e 10 24
e 10 25
e 10 26
e 10 27
e 10 29
e 10 30
e 10 32
e 10 34
e 10 36
e 10 38
e 10 39
e 10 40
e 10 41
e 10 43
e 10 45
e 10 46
e 10 47
e 10 48
e 10 49
e 10 51
e 10 52
e 10 53
e 10 54
e 10 55
e 10 56
e 10 57
e 10 58
e 10 59
e 10 60
e 10 61
e 10 62
e 10 63
e 10 64
e 10 65
e 10 66
e 10 67
e 10 84
e 10 88
e 10 95
e 10 96
e 10 97
e 10 98
e 10 99
e 10 100
e 11 12
e 11 13
e 11 14
e 11 15
e 11 16
e 11 17
e 11 18
e 11 19
e 11 20
e 11 21
e 11 22
e 11 24
e 11 26
e 11 27
e 11 29
e 11 30
e 11 32
e 11 34
e 11 36
e 11 37
e 11 38
e 11 41
e 11 42
e 11 43
e 11 44
e 11 46
e 11 47
e 11 48
e 11 49
e 11 50
e 11 52
e 11 53
e 11 54
e 11 55
e 11 56
e 11 57
e 11 58
e 11 59
e 11 60
e 11 61
e 11 62
e 11 63
e 11 64
e 11 65
e 11 66
e 11 67
e 11 73
e 11 74
e 11 75
e 11 92
e 11 96
e 11 97
e 11 98
e 11 99
e 11 100
e 12 13
e 12 14
e 12 15
e 12 16
e 12 17
e 12 18
e 12 19
e 12 20
e 12 21
e 12 22
e 12 23
e 12 24
e 12 25
e 12 26
e 12 27
e 12 28
e 12 29
e 12 30
e 12 31
e 12 32
e 12 33
e 12 34
e 12 35
e 12 36
e 12 37
e 12 39
e 12 41
e 12 43
e 12 44
e 12 45
e 12 47
e 12 48
e 12 50
e 12 51
e 12 52
e 12 53
e 12 54
e 12 55
e 12 57
e 12 58
e 12 59
e 12 60
e 12 61
e 12 62
e 12 63
e 12 64
e 12 66
e 12 67
e 12 85
e 12 96
e 12 97
e 12 99
e 12 100
e 13 14
e 13 15
e 13 16
e 13 17
e 13 18
e 13 19
e 13 20
e 13 21
e 13 22
e 13 24
e 13 28
e 13 29
e 13 30
e 13 32
e 13 36
e 13 37
e 13 38
e 13 39
e 13 40
e 13 42
e 13 43
e 13 45
e 13 46
e 13 47
e 13 48
e 13 50
e 13 51
e 13 53
e 13 54
e 13 55
e 13 56
e 13 57
e 13 58
e 13 59
e 13 61
e 13 62
e 13 63
e 13 64
e 13 65
e 13 66
e 13 67
e 13 71
e 13 72
e 13 73
e 13 80
e 13 83
e 13 86
e 13 94
e 13 96
e 13 97
e 13 98
e 13 99
e 13 100
e 14 15
e 14 16
e 14 17
e 14 18
e 14 19
e 14 20
e 14 21
e 14 22
e 14 24
e 14 25
e 14 26
e 14 27
e 14 28
e 14 30
e 14 31
e 14 32
e 14 33
e 14 34
e 14 35
e 14 36
e 14 38
e 14 39
e 14 40
e 14 42
e 14 43
e 14 44
e 14 45
e 14 46
e 14 47
e 14 48
e 14 49
e 14 50
e 14 51
e 14 63
e 14 79
e 14 94
e 15 16
e 15 17
e 15 18
e 15 19
e 15 20
e 15 21
e 15 22
e 15 23
e 15 24
e 15 25
e 15 26
e 15 27
e 15 28
e 15 29
e 15 30
e 15 31
e 15 32
e 15 35
e 15 37
e 15 38
e 15 39
e 15 42
e 15 43
e 15 44
e 15 45
e 15 46
e 15 47
e 15 48
e 15 50
e 15 51
e 15 80
e 15 81
e 15 84
e 15 87
e 15 99
e 15 100
e 16 17
e 16 18
e 16 19
e 16 20
e 16 21
e 16 22
e 16 24
e 16 25
e 16 26
e 16 27
e 16 29
e 16 30
e 16 84
e 16 85
e 16 87
e 16 89
e 16 100
e 17 18
e 17 19
e 17 20
e 17 21
e 17 22
e 17 23
e 17 26
e 17 27
e 17 29
e 17 34
e 17 50
e 17 76
e 17 80
e 17 96
e 17 98
e 18 19
e 18 20
e 18 21
e 18 22
e 18 23
e 18 26
e 18 29
e 18 31
e 18 75
e 18 81
e 18 89
e 18 92
e 18 100
e 19 20
e 19 21
e 19 22
e 19 24
e 19 25
e 19 27
e 19 30
e 19 31
e 19 39
e 19 44
e 19 82
e 19 92
e 19 100
e 20 21
e 20 22
e 20 23
e 20 24
e 20 25
e 20 26
e 20 27
e 20 28
e 20 29
e 20 30
e 20 31
e 20 49
e 20 72
e 20 76
e 20 91
e 20 93
e 20 94
e 20 96
e 21 22
e 21 24
e 21 25
e 21 26
e 21 27
e 21 28
e 21 29
e 21 31
e 21 74
e 21 75
e 21 91
e 22 23
e 22 24
e 22 25
e 22 26
e 22 27
e 22 29
e 22 30
e 22 31
e 22 75
e 22 90
e 22 92
e 22 96
e 22 98
e 23 24
e 23 25
e 23 26
e 23 27
e 23 28
e 23 29
e 23 30
e 23 31
e 23 32
e 23 33
e 23 34
e 23 35
e 23 36
e 23 37
e 23 38
e 23 39
e 23 40
e 23 41
e 23 42
e 23 43
e 23 44
e 23 45
e 23 46
e 23 47
e 23 48
e 23 49
e 23 50
e 23 51
e 23 73
e 23 87
e 23 88
e 23 89
e 23 91
e 24 25
e 24 26
e 24 27
e 24 28
e 24 29
e 24 30
e 24 31
e 24 32
e 24 33
e 24 34
e 24 35
e 24 36
e 24 37
e 24 38
e 24 39
e 24 40
e 24 41
e 24 42
e 24 43
e 24 44
e 24 45
e 24 46
e 24 47
e 24 48
e 24 49
e 24 50
e 24 51
e 24 73
e 24 76
e 24 80
e 24 82
e 24 83
e 24 84
e 24 88
e 24 95
e 24 96
e 25 26
e 25 27
e 25 28
e 25 29
e 25 30
e 25 31
e 25 32
e 25 33
e 25 34
e 25 35
e 25 36
e 25 37
e 25 38
e 25 39
e 25 40
e 25 41
e 25 42
e 25 44
e 25 45
e 25 46
e 25 48
e 25 49
e 25 50
e 25 51
e 25 75
e 25 80
e 25 84
e 25 88
e 25 90
e 26 27
e 26 28
e 26 29
e 26 30
e 26 31
e 26 32
e 26 33
e 26 34
e 26 35
e 26 36
e 26 37
e 26 38
e 26 39
e 26 40
e 26 41
e 26 43
e 26 44
e 26 45
e 26 46
e 26 47
e 26 48
e 26 49
e 26 50
e 26 51
e 26 57
e 26 65
e 26 82
e 26 96
e 27 28
e 27 29
e 27 30
e 27 31
e 27 32
e 27 33
e 27 34
e 27 35
e 27 36
e 27 37
e 27 38
e 27 39
e 27 40
e 27 41
e 27 42
e 27 43
e 27 44
e 27 45
e 27 47
e 27 48
e 27 49
e 27 50
e 27 51
e 27 83
e 27 86
e 27 87
e 27 93
e 28 29
e 28 30
e 28 31
e 28 32
e 28 33
e 28 34
e 28 35
e 28 36
e 28 37
e 28 38
e 28 39
e 28 40
e 28 41
e 28 42
e 28 43
e 28 44
e 28 45
e 28 46
e 28 47
e 28 48
e 28 49
e 28 50
e 28 51
e 28 76
e 28 95
e 28 100
e 29 30
e 29 31
e 29 32
e 29 33
e 29 34
e 29 35
e 29 36
e 29 37
e 29 38
e 29 39
e 29 40
e 29 41
e 29 42
e 29 43
e 29 45
e 29 46
e 29 47
e 29 48
e 29 49
e 29 50
e 29 51
e 29 76
e 29 80
e 29 83
e 29 85
e 29 87
e 29 92
e 30 31
e 30 32
e 30 33
e 30 34
e 30 35
e 30 36
e 30 37
e 30 38
e 30 39
e 30 40
e 30 41
e 30 42
e 30 43
e 30 44
e 30 45
e 30 46
e 30 47
e 30 48
e 30 49
e 30 50
e 30 51
e 30 75
e 30 76
e 30 80
e 31 32
e 31 33
e 31 34
e 31 35
e 31 36
e 31 37
e 31 38
e 31 39
e 31 40
e 31 41
e 31 42
e 31 43
e 31 44
e 31 45
e 31 46
e 31 47
e 31 48
e 31 49
e 31 50
e 31 51
e 31 77
e 31 78
e 31 80
e 31 82
e 31 86
e 32 33
e 32 34
e 32 35
e 32 36
e 32 38
e 32 39
e 32 40
e 32 41
e 32 42
e 32 43
e 32 44
e 32 45
e 32 46
e 32 47
e 32 48
e 32 49
e 32 50
e 32 51
e 32 72
e 32 73
e 32 75
e 32 81
e 32 83
e 32 84
e 32 96
e 33 34
e 33 35
e 33 36
e 33 37
e 33 38
e 33 39
e 33 40
e 33 41
e 33 42
e 33 43
e 33 44
e 33 45
e 33 46
e 33 47
e 33 48
e 33 49
e 33 50
e 33 51
e 33 80
e 33 82
e 33 90
e 33 97
e 34 35
e 34 36
e 34 37
e 34 38
e 34 39
e 34 40
e 34 41
e 34 42
e 34 43
e 34 44
e 34 45
e 34 46
e 34 47
e 34 48
e 34 49
e 34 50
e 34 51
e 34 74
e 34 86
e 34 88
e 34 89
e 35 36
e 35 37
e 35 38
e 35 39
e 35 40
e 35 41
e 35 42
e 35 43
e 35 44
e 35 46
e 35 47
e 35 48
e 35 50
e 35 51
e 35 81
e 35 82
e 36 37
e 36 38
e 36 39
e 36 40
e 36 41
e 36 42
e 36 43
e 36 44
e 36 45
e 36 46
e 36 47
e 36 48
e 36 49
e 36 50
e 36 51
e 36 72
e 36 73
e 36 74
e 36 75
e 36 76
e 36 77
e 36 78
e 36 79
e 36 80
e 36 81
e 36 82
e 36 83
e 36 84
e 36 85
e 36 86
e 36 87
e 36 88
e 36 89
e 36 90
e 36 91
e 36 92
e 36 93
e 36 95
e 36 96
e 37 38
e 37 39
e 37 40
e 37 41
e 37 42
e 37 43
e 37 44
e 37 45
e 37 46
e 37 47
e 37 48
e 37 49
e 37 50
e 37 51
e 37 72
e 37 73
e 37 74
e 37 76
e 37 77
e 37 78
e 37 79
e 37 80
e 37 81
e 37 82
e 37 83
e 37 84
e 37 85
e 37 86
e 37 87
e 37 88
e 37 89
e 37 90
e 37 91
e 37 92
e 37 93
e 37 94
e 37 95
e 37 96
e 38 39
e 38 40
e 38 41
e 38 42
e 38 43
e 38 44
e 38 45
e 38 46
e 38 47
e 38 48
e 38 49
e 38 50
e 38 51
e 38 73
e 38 74
e 38 75
e 38 76
e 38 77
e 38 78
e 38 79
e 38 80
e 38 81
e 38 82
e 38 83
e 38 84
e 38 85
e 38 86
e 38 87
e 38 88
e 38 89
e 38 90
e 38 91
e 38 92
e 38 93
e 38 94
e 38 95
e 38 96
e 39 40
e 39 41
e 39 42
e 39 43
e 39 44
e 39 45
e 39 46
e 39 47
e 39 48
e 39 49
e 39 50
e 39 51
e 39 72
e 39 73
e 39 74
e 39 75
e 39 76
e 39 77
e 39 78
e 39 79
e 39 80
e 39 81
e 39 82
e 39 83
e 39 84
e 39 85
e 39 86
e 39 87
e 39 88
e 39 89
e 39 90
e 39 91
e 39 92
e 39 93
e 39 94
e 39 95
e 39 96
e 40 41
e 40 42
e 40 43
e 40 44
e 40 45
e 40 46
e 40 47
e 40 48
e 40 49
e 40 50
e 40 51
e 40 60
e 40 72
e 40 73
e 40 74
e 40 75
e 40 76
e 40 77
e 40 78
e 40 79
e 40 80
e 40 81
e 40 82
e 40 83
e 40 84
e 40 85
e 40 86
e 40 87
e 40 88
e 40 90
e 40 91
e 40 92
e 40 93
e 40 94
e 40 96
e 41 42
e 41 43
e 41 44
e 41 45
e 41 46
e 41 47
e 41 48
e 41 49
e 41 50
e 41 51
e 41 72
e 41 73
e 41 74
e 41 75
e 41 76
e 41 77
e 41 78
e 41 79
e 41 80
e 41 81
e 41 82
e 41 84
e 41 85
e 41 86
e 41 87
e 41 88
e 41 89
e 41 90
e 41 91
e 41 92
e 41 93
e 41 94
e 41 95
e 41 96
e 42 43
e 42 44
e 42 45
e 42 46
e 42 47
e 42 48
e 42 49
e 42 50
e 42 51
e 42 72
e 42 73
e 42 74
e 42 75
e 42 76
e 42 77
e 42 78
e 42 79
e 42 80
e 42 81
e 42 82
e 42 83
e 42 84
e 42 85
e 42 86
e 42 87
e 42 88
e 42 89
e 42 90
e 42 91
e 42 92
e 42 93
e 42 94
e 42 95
e 42 96
e 42 98
e 43 44
e 43 45
e 43 46
e 43 47
e 43 48
e 43 49
e 43 50
e 43 51
e 43 72
e 43 73
e 43 74
e 43 75
e 43 76
e 43 77
e 43 78
e 43 79
e 43 80
e 43 81
e 43 82
e 43 83
e 43 84
e 43 85
e 43 86
e 43 87
e 43 88
e 43 89
e 43 90
e 43 91
e 43 92
e 43 93
e 43 94
e 43 95
e 43 96
e 43 98
e 44 45
e 44 46
e 44 47
e 44 48
e 44 49
e 44 50
e 44 51
e 44 72
e 44 73
e 44 74
e 44 75
e 44 76
e 44 77
e 44 78
e 44 79
e 44 80
e 44 81
e 44 82
e 44 83
e 44 84
e 44 85
e 44 86
e 44 87
e 44 88
e 44 89
e 44 90
e 44 93
e 44 94
e 44 95
e 44 96
e 45 46
e 45 47
e 45 48
e 45 49
e 45 50
e 45 51
e 45 72
e 45 73
e 45 74
e 45 75
e 45 76
e 45 77
e 45 78
e 45 79
e 45 80
e 45 81
e 45 82
e 45 83
e 45 84
e 45 85
e 45 86
e 45 87
e 45 88
e 45 89
e 45 90
e 45 91
e 45 92
e 45 93
e 45 94
e 45 96
e 46 47
e 46 48
e 46 49
e 46 50
e 46 51
e 46 72
e 46 73
e 46 74
e 46 75
e 46 76
e 46 77
e 46 78
e 46 79
e 46 80
e 46 81
e 46 82
e 46 83
e 46 84
e 46 85
e 46 86
e 46 87
e 46 88
e 46 89
e 46 90
e 46 91
e 46 92
e 46 93
e 46 94
e 46 96
e 46 97
e 47 48
e 47 49
e 47 50
e 47 51
e 47 69
e 47 72
e 47 73
e 47 74
e 47 75
e 47 76
e 47 77
e 47 78
e 47 79
e 47 80
e 47 81
e 47 82
e 47 83
e 47 84
e 47 85
e 47 86
e 47 87
e 47 88
e 47 89
e 47 90
e 47 91
e 47 92
e 47 93
e 47 94
e 47 95
e 47 96
e 48 49
e 48 50
e 48 51
e 48 72
e 48 73
e 48 74
e 48 75
e 48 76
e 48 77
e 48 78
e 48 79
e 48 80
e 48 81
e 48 82
e 48 83
e 48 84
e 48 85
e 48 86
e 48 87
e 48 88
e 48 89
e 48 90
e 48 91
e 48 92
e 48 94
e 48 95
e 48 96
e 49 50
e 49 51
e 49 72
e 49 73
e 49 74
e 49 75
e 49 76
e 49 77
e 49 78
e 49 79
e 49 80
e 49 81
e 49 82
e 49 83
e 49 84
e 49 85
e 49 86
e 49 87
e 49 88
e 49 89
e 49 90
e 49 91
e 49 92
e 49 93
e 49 94
e 49 95
e 49 96
e 50 51
e 50 72
e 50 73
e 50 74
e 50 75
e 50 76
e 50 77
e 50 78
e 50 79
e 50 80
e 50 81
e 50 82
e 50 83
e 50 84
e 50 85
e 50 86
e 50 87
e 50 88
e 50 89
e 50 90
e 50 91
e 50 92
e 50 93
e 50 94
e 50 95
e 50 96
e 51 72
e 51 73
e 51 74
e 51 75
e 51 76
e 51 77
e 51 78
e 51 79
e 51 80
e 51 81
e 51 82
e 51 83
e 51 84
e 51 85
e 51 86
e 51 87
e 51 88
e 51 89
e 51 90
e 51 91
e 51 92
e 51 93
e 51 94
e 51 95
e 51 96
e 52 53
e 52 92
e 52 94
e 52 95
e 52 96
e 52 97
e 52 100
e 53 92
e 53 97
e 53 100
e 54 55
e 54 56
e 54 57
e 54 58
e 54 60
e 54 61
e 54 62
e 54 63
e 54 64
e 54 65
e 54 66
e 54 67
e 54 68
e 54 69
e 54 70
e 54 71
e 54 72
e 54 73
e 54 74
e 54 75
e 54 76
e 54 77
e 54 78
e 54 79
e 54 80
e 54 81
e 54 82
e 54 83
e 54 84
e 54 85
e 54 86
e 54 87
e 54 92
e 54 95
e 54 96
e 54 97
e 54 98
e 54 99
e 54 100
e 55 56
e 55 57
e 55 58
e 55 59
e 55 60
e 55 61
e 55 62
e 55 64
e 55 65
e 55 66
e 55 67
e 55 68
e 55 69
e 55 70
e 55 71
e 55 72
e 55 73
e 55 74
e 55 75
e 55 76
e 55 77
e 55 78
e 55 79
e 55 80
e 55 81
e 55 82
e 55 83
e 55 84
e 55 85
e 55 86
e 55 87
e 56 57
e 56 58
e 56 59
e 56 60
e 56 61
e 56 62
e 56 63
e 56 64
e 56 65
e 56 66
e 56 67
e 56 68
e 56 69
e 56 70
e 56 71
e 56 72
e 56 73
e 56 74
e 56 75
e 56 76
e 56 77
e 56 78
e 56 79
e 56 80
e 56 81
e 56 82
e 56 83
e 56 84
e 56 85
e 56 86
e 56 87
e 56 96
e 56 98
e 56 99
e 57 58
e 57 59
e 57 60
e 57 61
e 57 62
e 57 63
e 57 64
e 57 65
e 57 66
e 57 67
e 57 68
e 57 69
e 57 71
e 57 72
e 57 73
e 57 74
e 57 75
e 57 76
e 57 77
e 57 78
e 57 79
e 57 80
e 57 81
e 57 82
e 57 84
e 57 85
e 57 86
e 57 87
e 57 92
e 57 98
e 57 100
e 58 59
e 58 60
e 58 61
e 58 62
e 58 63
e 58 64
e 58 65
e 58 66
e 58 67
e 58 68
e 58 69
e 58 70
e 58 71
e 58 72
e 58 73
e 58 74
e 58 75
e 58 76
e 58 77
e 58 78
e 58 79
e 58 80
e 58 81
e 58 82
e 58 83
e 58 84
e 58 85
e 58 86
e 58 87
e 58 91
e 58 94
e 58 95
e 58 96
e 58 97
e 59 60
e 59 61
e 59 62
e 59 63
e 59 64
e 59 65
e 59 66
e 59 68
e 59 69
e 59 70
e 59 71
e 59 72
e 59 73
e 59 74
e 59 75
e 59 76
e 59 77
e 59 78
e 59 79
e 59 80
e 59 81
e 59 82
e 59 83
e 59 84
e 59 85
e 59 86
e 59 87
e 59 89
e 59 93
e 59 94
e 60 61
e 60 62
e 60 63
e 60 64
e 60 65
e 60 66
e 60 67
e 60 68
e 60 69
e 60 70
e 60 71
e 60 72
e 60 73
e 60 74
e 60 75
e 60 76
e 60 77
e 60 78
e 60 79
e 60 80
e 60 81
e 60 82
e 60 83
e 60 84
e 60 85
e 60 86
e 60 87
e 60 94
e 60 96
e 60 97
e 60 100
e 61 62
e 61 63
e 61 64
e 61 65
e 61 66
e 61 67
e 61 68
e 61 69
e 61 70
e 61 71
e 61 72
e 61 73
e 61 74
e 61 75
e 61 76
e 61 77
e 61 78
e 61 79
e 61 80
e 61 81
e 61 82
e 61 83
e 61 84
e 61 85
e 61 86
e 61 87
e 61 92
e 61 93
e 61 95
e 62 63
e 62 64
e 62 65
e 62 66
e 62 67
e 62 68
e 62 69
e 62 70
e 62 71
e 62 72
e 62 73
e 62 74
e 62 75
e 62 76
e 62 77
e 62 78
e 62 79
e 62 80
e 62 81
e 62 82
e 62 83
e 62 84
e 62 85
e 62 87
e 62 92
e 62 93
e 62 94
e 62 95
e 62 98
e 63 64
e 63 65
e 63 66
e 63 67
e 63 68
e 63 69
e 63 70
e 63 71
e 63 72
e 63 73
e 63 74
e 63 75
e 63 76
e 63 77
e 63 78
e 63 79
e 63 80
e 63 81
e 63 82
e 63 83
e 63 84
e 63 85
e 63 86
e 63 87
e 63 96
e 63 97
e 63 98
e 64 65
e 64 66
e 64 67
e 64 68
e 64 69
e 64 70
e 64 71
e 64 72
e 64 73
e 64 74
e 64 75
e 64 76
e 64 77
e 64 78
e 64 79
e 64 80
e 64 81
e 64 82
e 64 83
e 64 84
e 64 85
e 64 86
e 64 87
e 64 92
e 65 66
e 65 67
e 65 68
e 65 69
e 65 70
e 65 71
e 65 72
e 65 73
e 65 74
e 65 75
e 65 76
e 65 77
e 65 78
e 65 79
e 65 80
e 65 81
e 65 82
e 65 83
e 65 84
e 65 85
e 65 86
e 65 87
e 65 95
e 66 67
e 66 68
e 66 69
e 66 70
e 66 71
e 66 72
e 66 73
e 66 74
e 66 75
e 66 76
e 66 77
e 66 78
e 66 79
e 66 80
e 66 81
e 66 82
e 66 83
e 66 84
e 66 85
e 66 86
e 66 87
e 66 92
e 67 68
e 67 69
e 67 70
e 67 71
e 67 72
e 67 73
e 67 74
e 67 75
e 67 76
e 67 77
e 67 78
e 67 79
e 67 81
e 67 82
e 67 83
e 67 84
e 67 85
e 67 86
e 67 87
e 67 91
e 67 92
e 67 93
e 67 96
e 67 98
e 68 70
e 68 71
e 68 72
e 68 73
e 68 74
e 68 75
e 68 76
e 68 77
e 68 78
e 68 79
e 68 80
e 68 81
e 68 82
e 68 83
e 68 84
e 68 85
e 68 86
e 68 87
e 69 70
e 69 71
e 69 72
e 69 73
e 69 74
e 69 75
e 69 76
e 69 78
e 69 79
e 69 80
e 69 81
e 69 82
e 69 83
e 69 84
e 69 85
e 69 86
e 69 87
e 69 88
e 69 90
e 70 71
e 70 72
e 70 73
e 70 74
e 70 75
e 70 76
e 70 77
e 70 78
e 70 79
e 70 80
e 70 81
e 70 82
e 70 83
e 70 84
e 70 85
e 70 86
e 70 87
e 70 88
e 70 89
e 70 90
e 71 72
e 71 73
e 71 74
e 71 75
e 71 76
e 71 77
e 71 78
e 71 79
e 71 80
e 71 81
e 71 82
e 71 83
e 71 84
e 71 85
e 71 86
e 71 87
e 71 88
e 71 89
e 71 90
e 71 95
e 71 98
e 72 74
e 72 75
e 72 76
e 72 77
e 72 78
e 72 79
e 72 80
e 72 81
e 72 83
e 72 84
e 72 85
e 72 86
e 72 87
e 72 88
e 72 89
e 72 90
e 72 91
e 72 93
e 72 96
e 73 74
e 73 75
e 73 76
e 73 77
e 73 78
e 73 79
e 73 80
e 73 81
e 73 82
e 73 83
e 73 84
e 73 85
e 73 86
e 73 87
e 73 88
e 73 89
e 73 90
e 73 93
e 73 95
e 74 75
e 74 76
e 74 77
e 74 78
e 74 79
e 74 80
e 74 81
e 74 82
e 74 83
e 74 84
e 74 85
e 74 86
e 74 87
e 74 89
e 74 90
e 74 94
e 74 100
e 75 76
e 75 77
e 75 78
e 75 79
e 75 80
e 75 81
e 75 82
e 75 83
e 75 84
e 75 85
e 75 86
e 75 87
e 75 88
e 75 89
e 75 90
e 76 77
e 76 78
e 76 79
e 76 80
e 76 81
e 76 82
e 76 83
e 76 84
e 76 85
e 76 86
e 76 87
e 76 88
e 76 89
e 76 90
e 76 91
e 76 93
e 76 94
e 76 96
e 76 98
e 77 78
e 77 79
e 77 80
e 77 81
e 77 82
e 77 83
e 77 84
e 77 85
e 77 86
e 77 87
e 77 88
e 77 90
e 77 93
e 78 79
e 78 80
e 78 81
e 78 82
e 78 83
e 78 84
e 78 85
e 78 86
e 78 87
e 78 88
e 78 89
e 78 90
e 78 93
e 78 98
e 79 80
e 79 81
e 79 82
e 79 83
e 79 84
e 79 85
e 79 86
e 79 87
e 79 88
e 79 89
e 79 90
e 79 97
e 80 81
e 80 82
e 80 83
e 80 84
e 80 85
e 80 86
e 80 87
e 80 88
e 80 89
e 80 90
e 80 94
e 80 96
e 80 97
e 81 82
e 81 83
e 81 84
e 81 85
e 81 86
e 81 87
e 81 88
e 81 89
e 81 90
e 82 83
e 82 84
e 82 85
e 82 86
e 82 87
e 82 88
e 82 89
e 82 90
e 82 98
e 82 99
e 83 84
e 83 85
e 83 86
e 83 87
e 83 88
e 83 89
e 83 90
e 84 85
e 84 86
e 84 87
e 84 88
e 84 89
e 84 90
e 84 100
e 85 86
e 85 87
e 85 88
e 85 89
e 85 90
e 86 87
e 86 88
e 86 89
e 86 90
e 86 97
e 86 98
e 86 99
e 86 100
e 87 88
e 87 89
e 87 90
e 87 97
e 87 98
e 87 99
e 87 100
e 88 89
e 88 90
e 88 97
e 88 98
e 88 99
e 88 100
e 89 90
e 89 97
e 89 98
e 89 99
e 89 100
e 90 97
e 90 98
e 90 99
e 90 100
e 91 92
e 91 94
e 91 95
e 91 96
e 91 97
e 91 98
e 91 99
e 91 100
e 92 93
e 92 94
e 92 95
e 92 96
e 92 97
e 92 98
e 92 99
e 92 100
e 93 94
e 93 95
e 93 96
e 93 97
e 93 98
e 93 99
e 93 100
e 94 95
e 94 96
e 94 97
e 94 98
e 94 99
e 94 100
e 95 96
e 95 97
e 95 98
e 95 99
e 95 100
e 96 97
e 96 98
e 96 99
e 96 100
e 97 98
e 97 99
e 97 100
e 98 99
e 98 100
e 99 100
